2
100 2
42
5 1 1
7 1 1
8 1 1
14 1 1
19 1 1
20 1 1
21 1 1
22 1 1
24 1 1
30 1 2
38 1 1
39 1 2
41 1 1
46 1 1
49 1 1
50 1 3
51 1 1
55 1 1
56 1 1
58 1 1
59 1 1
61 1 1
63 1 1
64 1 1
66 1 1
67 1 2
70 1 1
72 1 1
79 1 1
80 1 1
81 1 2
85 1 1
87 1 1
88 1 1
90 1 1
91 1 2
92 1 1
94 1 1
97 1 2
98 1 1
99 1 1
100 1 1
